58034
58215
53772
57260
51906
54256
50248
57010
59761
54220
56683
57280
51161
59653
55022
53772
51325
54676
58551
58244
54904
57702
52749
57679
53335
51019
55864
50108
55390
58703
59441
56856
58186
57283
57517
55444
53383
53942
58908
56531
53706
52834
59252
59691
59699
52565
57203
50527
54531
54373
50456
54473
55131
56169
57634
52626
52425
56601
52570
53658
54196
53099
51898
52486
51446
56651
50850
57019
59955
56206
56601
55086
59603
57378
56122
56229
55690
59990
59575
57005
58236
57578
51077
57570
59701
54929
59768
53646
59786
57544
57195
56020
55934
58988
53499
54711
51831
53639
53897
58156
